sifdecoder -A pc64.lnx.gfo -st   STEENBRF

 Problem name: STEENBRF

 Double precision version will be formed

 The objective function uses 1 nonlinear group
 
 There are 108 linear equality constraints
 
 There are 468 variables bounded only from below 
 
 
 File successfully decoded
 CUTEST: tools (double precision version) compiled successfully
 CUTEst: ipopt (double precision version) compiled successfully

******************************************************************************
This program contains Ipopt, a library for large-scale nonlinear optimization.
 Ipopt is released as open source code under the Eclipse Public License (EPL).
         For more information visit http://projects.coin-or.org/Ipopt
******************************************************************************

This is Ipopt version trunk, running with linear solver ma57.

Number of nonzeros in equality constraint Jacobian...:      864
Number of nonzeros in inequality constraint Jacobian.:        0
Number of nonzeros in Lagrangian Hessian.............:     3276

Reallocating memory for MA57: lfact (161297)
Total number of variables............................:      468
                     variables with only lower bounds:      468
                variables with lower and upper bounds:        0
                     variables with only upper bounds:        0
Total number of equality constraints.................:      108
Total number of inequality constraints...............:        0
        inequality constraints with only lower bounds:        0
   inequality constraints with lower and upper bounds:        0
        inequality constraints with only upper bounds:        0

iter    objective    inf_pr   inf_du lg(mu)  ||d||  lg(rg) alpha_du alpha_pr  ls
   0  2.8584699e+03 2.00e+03 1.01e+02  -1.0 0.00e+00    -  0.00e+00 0.00e+00   0
   1  2.8573682e+03 2.00e+03 1.01e+02  -1.0 4.98e+02    -  1.99e-04 1.99e-04h  1
   2  3.7832607e+03 2.00e+03 1.01e+02  -1.0 1.95e+03    -  1.01e-04 9.04e-04h  1
   3  6.7797946e+03 1.99e+03 1.01e+02  -1.0 2.00e+03    -  8.16e-04 2.20e-03h  1
   4  1.5422313e+04 1.98e+03 1.01e+02  -1.0 2.00e+03    -  1.41e-03 6.39e-03h  1
   5  4.0126981e+04 1.94e+03 1.00e+02  -1.0 1.98e+03    -  6.72e-03 1.84e-02h  1
   6  8.6696824e+04 1.87e+03 9.87e+01  -1.0 1.94e+03    -  1.14e-02 4.02e-02h  1
   7  1.0418648e+05 1.83e+03 9.72e+01  -1.0 3.37e+03    -  2.43e-02 1.85e-02h  1
   8  1.3938116e+05 1.77e+03 9.47e+01  -1.0 1.95e+03    -  3.70e-02 3.60e-02h  1
   9  2.1454655e+05 1.62e+03 9.01e+01  -1.0 1.78e+03    -  5.37e-02 8.13e-02h  1
iter    objective    inf_pr   inf_du lg(mu)  ||d||  lg(rg) alpha_du alpha_pr  ls
  10  3.3155803e+05 1.38e+03 8.23e+01  -1.0 1.62e+03    -  1.79e-01 1.51e-01h  1
  11  5.7251260e+05 7.55e+02 6.62e+01  -1.0 1.38e+03    -  9.42e-01 4.52e-01h  1
  12  6.3304312e+05 6.52e-09 3.76e+01  -1.0 7.55e+02    -  7.10e-01 1.00e+00h  1
  13  3.6004385e+05 3.26e-09 1.58e+01  -1.0 7.70e+01    -  1.00e+00 1.00e+00f  1
  14  2.0668848e+05 3.19e-09 6.69e+00  -1.0 1.03e+02    -  1.00e+00 9.98e-01f  1
  15  1.2030539e+05 1.94e-09 2.82e+00  -1.0 1.37e+02    -  5.15e-01 1.00e+00f  1
  16  7.1668470e+04 1.07e-09 1.19e+00  -1.0 1.83e+02    -  9.53e-01 1.00e+00f  1
  17  4.4441514e+04 5.80e-10 5.03e-01  -1.0 2.44e+02    -  1.00e+00 1.00e+00f  1
  18  2.8500878e+04 2.13e-10 2.12e-01  -1.7 3.25e+02    -  8.77e-01 1.00e+00f  1
  19  1.9814647e+04 1.25e-10 8.94e-02  -1.7 4.32e+02    -  8.64e-01 1.00e+00f  1
iter    objective    inf_pr   inf_du lg(mu)  ||d||  lg(rg) alpha_du alpha_pr  ls
  20  1.4849716e+04 4.11e-11 3.77e-02  -2.5 5.76e+02    -  8.25e-01 1.00e+00f  1
  21  1.2126304e+04 2.35e-11 1.59e-02  -2.5 7.65e+02    -  1.00e+00 1.00e+00f  1
  22  1.1553879e+04 1.85e-11 2.08e-02  -3.8 1.02e+03    -  7.72e-01 2.80e-01f  1
  23  1.0655773e+04 1.17e-11 1.43e-02  -3.8 1.11e+03    -  1.00e+00 6.08e-01f  1
  24  1.0136234e+04 7.60e-12 2.66e-02  -3.8 1.32e+03    -  1.00e+00 5.00e-01f  1
  25  9.5630974e+03 4.23e-12 3.54e-01  -3.8 1.53e+03    -  1.00e+00 9.10e-01f  1
  26  9.4056807e+03 5.28e-12 4.21e-01  -3.8 1.95e+03    -  1.76e-01 3.72e-01f  1
  27  9.2598051e+03 7.86e-12 4.35e-01  -3.8 2.16e+03    -  1.86e-01 4.77e-01f  1
  28  9.2146201e+03 3.40e-12 3.56e-01  -3.8 2.43e+03    -  4.60e-01 1.87e-01f  1
  29  9.0855264e+03 1.79e-09 9.70e-02  -3.8 2.54e+03    -  7.10e-01 8.39e-01f  1
iter    objective    inf_pr   inf_du lg(mu)  ||d||  lg(rg) alpha_du alpha_pr  ls
  30  9.0710257e+03 1.53e-09 2.60e-02  -3.8 2.96e+03    -  6.53e-01 1.47e-01f  1
  31  9.0137840e+03 2.12e-11 9.52e-03  -3.8 3.02e+03    -  1.00e+00 1.00e+00f  1
  32  8.9972175e+03 1.47e-11 3.49e-03  -3.8 3.17e+03    -  1.00e+00 1.00e+00f  1
  33  8.9943373e+03 6.17e-13 3.32e-04  -3.8 2.57e+03    -  1.00e+00 1.00e+00f  1
  34  8.9929993e+03 3.73e-13 1.34e-02  -5.7 1.20e+03    -  9.54e-01 4.18e-01f  1
  35  8.9925934e+03 3.34e-13 5.36e-02  -5.7 8.10e+02    -  1.00e+00 2.99e-01f  1
  36  8.9922660e+03 3.70e-13 4.02e-02  -5.7 6.06e+02    -  1.00e+00 4.40e-01f  1
  37  8.9919196e+03 1.60e-13 1.43e-02  -5.7 3.33e-02  -4.0 1.00e+00 1.00e+00f  1
Reallocating memory for MA57: lfact (172357)
  38  8.9918963e+03 2.50e-13 2.77e-03  -5.7 7.11e-02  -4.5 1.00e+00 1.00e+00f  1
  39  8.9918907e+03 2.27e-13 5.44e-04  -5.7 2.13e-01  -5.0 1.00e+00 1.00e+00f  1
iter    objective    inf_pr   inf_du lg(mu)  ||d||  lg(rg) alpha_du alpha_pr  ls
  40  8.9918741e+03 1.50e-13 6.82e-06  -5.7 3.67e+02    -  1.00e+00 1.00e+00f  1
  41  8.9918528e+03 1.31e-13 9.29e-04  -8.6 2.46e-02  -5.4 1.00e+00 8.96e-01f  1
Reallocating memory for MA57: lfact (182431)
  42  8.9918488e+03 2.72e-13 6.01e-04  -8.6 7.35e-02  -5.9 1.00e+00 8.61e-01f  1
  43  8.9918484e+03 2.32e-13 2.41e-04  -8.6 1.52e+01    -  1.00e+00 7.84e-01f  1
Reallocating memory for MA57: lfact (192683)
  44  8.9918483e+03 4.55e-13 1.70e-04  -8.6 4.71e-02  -6.4 1.00e+00 7.84e-01f  1
Reallocating memory for MA57: lfact (210959)
  45  8.9918483e+03 3.06e-13 5.07e-03  -8.6 3.27e+00    -  8.47e-02 9.63e-01f  1
  46  8.9918483e+03 1.06e-11 1.67e-08  -8.6 6.63e-04  -6.0 1.00e+00 1.00e+00f  1
  47  8.9918482e+03 2.27e-13 2.70e-08  -9.0 1.96e-03  -6.4 1.00e+00 1.00e+00h  1
  48  8.9918482e+03 3.07e-13 7.12e-10  -9.0 7.29e-04  -6.0 1.00e+00 1.00e+00h  1

Number of Iterations....: 48

                                   (scaled)                 (unscaled)
Objective...............:   2.6024032440877119e+02    8.9918482311567477e+03
Dual infeasibility......:   7.1153523476998628e-10    2.4585032533707382e-08
Constraint violation....:   3.0733670465524394e-13    3.0733670465524394e-13
Complementarity.........:   9.0969021270572763e-10    3.1431702018516654e-08
Overall NLP error.......:   9.0969021270572763e-10    3.1431702018516654e-08


Number of objective function evaluations             = 49
Number of objective gradient evaluations             = 49
Number of equality constraint evaluations            = 49
Number of inequality constraint evaluations          = 0
Number of equality constraint Jacobian evaluations   = 49
Number of inequality constraint Jacobian evaluations = 0
Number of Lagrangian Hessian evaluations             = 48
Total CPU secs in IPOPT (w/o function evaluations)   =      1.596
Total CPU secs in NLP function evaluations           =      0.034

EXIT: Optimal Solution Found.

************************ CUTEst statistics ************************


 Package used            :  IPOPT
 Problem                 :  STEENBRF  
 # variables             =             468
 # constraints           =             108
 # objective functions   =        0.9900000E+02
 # objective gradients   =        0.5000000E+02
 # objective Hessians    =        0.4900000E+02
 # Hessian-vector prdct  =        0.0000000E+00
 # constraints functions =        0.1000000E+03
 # constraints gradients =        0.5100000E+02
 # constraints Hessians  =        0.4900000E+02
 Exit code               =               0
 Final f                 =        8.9918482311567477D+03
 Bounds feasibility      =        0.0000000000000000D+00
 Set up time             =            0.05 seconds
 Solve time              =            3.43 seconds


******************************************************************

